p cnf 16 51

c f and g related
12 13 0
-12 -13 0
-12 5 0
-12 7 0
12 -5 -7 0
-13 6 0
-13 7 0
13 -6 -7 0

c e_s related
-5 4 14 15 16 0
5 -4 0
5 -14 0
5 -15 0
5 -16 0

c e_t related terms
-6 1 2 3 4 0
6 -1 0
6 -2 0
6 -3 0
6 -4 0

c rest terms
-16 -4 0
-16 3 0
14 4 -3 0

-15 -4 0
-15 -3 0
-15 2 0
15 4 3 -2 0

-14 -4 0
-14 -3 0
-14 -2 0
-14 1 0
14 4 3 2 -1 0

c care condition
7 -8 0
7 -9 0
7 -10 0
7 -11 0
-7 8 9 10 11 0

-11 -4 0
-11 -3 0
-11 -2 0
11 4 3 2 0

-10 -4 0
-10 -3 0
-10 -1 0
10 4 3 1 0

-9 -4 0
-9 -2 0
-9 -1 0
9 4 2 1 0

-8 -3 0
-8 -2 0
-8 -1 0
8 3 2 1 0